
  22   10
  10   10   10   10   10   10   10   10   10   10

   0   0   0   0   0   0   0   0   0   0   0   2 2 5 
   4  10  10  10  10  10  10  10  10  10  10   1 3 
   5  10  10  10  10  10  10  10  10  10  10   2 14 4 
   5  10  10  10  10  10  10  10  10  10  10   1 6 
  10  10  10  10  10  10  10  10  10  10  10   1 6 
   5  10  10  10  10  10  10  10  10  10  10   1 7 
   3  10  10  10  10  10  10  10  10  10  10   2 11 8 
  10  10  10  10  10  10  10  10  10  10  10   2 21 9 
   1  10  10  10  10  10  10  10  10  10  10   1 10 
   8  10  10  10  10  10  10  10  10  10  10   2 20 12 
   7  10  10  10  10  10  10  10  10  10  10   3 21 20 15 
  10  10  10  10  10  10  10  10  10  10  10   1 13 
   7  10  10  10  10  10  10  10  10  10  10   2 17 15 
   3  10  10  10  10  10  10  10  10  10  10   2 20 16 
   3  10  10  10  10  10  10  10  10  10  10   1 16 
   1  10  10  10  10  10  10  10  10  10  10   1 18 
   8  10  10  10  10  10  10  10  10  10  10   1 18 
   9  10  10  10  10  10  10  10  10  10  10   1 19 
   9  10  10  10  10  10  10  10  10  10  10   1 22
   9  10  10  10  10  10  10  10  10  10  10   1 22
   5  10  10  10  10  10  10  10  10  10  10   1 22
   0   0   0   0   0   0   0   0   0   0   0   0 
